% seed = 4597050

mint = 51;
% maxt = 127;

nActs = 22;
dur = [0,6,6,10,9,5,7,1,9,9,5,5,9,3,3,5,7,9,8,3,8,0];

nSkills = 4;
sreq = [| 0,0,0,0,
	| 2,1,1,1,
	| 0,3,1,2,
	| 3,2,2,2,
	| 3,0,0,2,
	| 0,0,2,2,
	| 0,3,2,0,
	| 1,2,1,2,
	| 3,2,1,2,
	| 3,0,0,2,
	| 1,1,2,2,
	| 2,2,2,2,
	| 3,0,3,2,
	| 3,0,2,2,
	| 0,1,2,0,
	| 0,2,1,0,
	| 2,2,3,2,
	| 0,2,0,1,
	| 3,2,1,1,
	| 3,1,2,2,
	| 0,3,0,2,
	| 0,0,0,0, |];

nResources = 10;
mastery = [| false,true,true,false,
	| true,false,true,false,
	| false,false,true,false,
	| true,true,false,true,
	| true,true,true,false,
	| false,false,true,false,
	| true,true,false,false,
	| true,false,true,true,
	| false,true,false,false,
	| false,false,true,false, |];

nPrecs = 37;
pred = [1,1,1,2,2,2,3,3,3,4,4,5,5,5,6,7,7,8,8,9,9,10,11,11,11,12,13,14,15,15,16,17,18,18,19,20,21];
succ = [2,3,4,5,15,7,17,14,15,14,8,18,12,6,10,21,14,9,21,10,11,12,18,13,15,13,21,16,19,20,20,19,19,20,22,22,22];

nUnrels = 103;
unpred = [2,2,2,2,2,2,3,3,3,3,3,3,3,3,3,3,3,3,4,4,4,4,5,5,5,5,5,5,5,5,6,6,6,6,6,6,6,6,6,6,6,7,7,7,7,7,7,7,7,7,7,8,8,8,9,9,9,10,10,10,10,10,10,10,10,11,11,11,11,12,12,12,12,12,12,12,13,13,13,13,13,13,13,14,14,14,14,14,15,15,15,15,16,16,16,16,17,17,17,18,19,19,20];
unsucc = [3,4,8,9,11,17,4,5,6,7,8,9,10,11,12,13,18,21,5,6,7,17,7,8,9,11,14,15,16,17,7,8,9,11,14,15,16,17,18,19,20,8,9,10,11,12,13,15,17,18,19,14,16,17,14,16,17,11,14,15,16,17,18,19,20,12,14,16,17,14,15,16,17,18,19,20,14,15,16,17,18,19,20,15,17,18,19,21,16,17,18,21,17,18,19,21,18,20,21,21,20,21,21];

USEFUL_RES = [{},
	{1,2,3,4,5,6,7,8,9,10},
	{1,2,3,4,5,6,7,8,9,10},
	{1,2,3,4,5,6,7,8,9,10},
	{2,4,5,7,8},
	{1,2,3,4,5,6,8,10},
	{1,2,3,4,5,6,7,8,9,10},
	{1,2,3,4,5,6,7,8,9,10},
	{1,2,3,4,5,6,7,8,9,10},
	{2,4,5,7,8},
	{1,2,3,4,5,6,7,8,9,10},
	{1,2,3,4,5,6,7,8,9,10},
	{1,2,3,4,5,6,7,8,10},
	{1,2,3,4,5,6,7,8,10},
	{1,2,3,4,5,6,7,8,9,10},
	{1,2,3,4,5,6,7,8,9,10},
	{1,2,3,4,5,6,7,8,9,10},
	{1,4,5,7,8,9},
	{1,2,3,4,5,6,7,8,9,10},
	{1,2,3,4,5,6,7,8,9,10},
	{1,4,5,7,8,9},
	{}];

POTENTIAL_ACT = [{2,3,4,6,7,8,9,11,12,13,14,15,16,17,18,19,20,21},
	{2,3,4,5,6,7,8,9,10,11,12,13,14,15,16,17,19,20},
	{2,3,4,6,7,8,9,11,12,13,14,15,16,17,19,20},
	{2,3,4,5,6,7,8,9,10,11,12,13,14,15,16,17,18,19,20,21},
	{2,3,4,5,6,7,8,9,10,11,12,13,14,15,16,17,18,19,20,21},
	{2,3,4,6,7,8,9,11,12,13,14,15,16,17,19,20},
	{2,3,4,5,7,8,9,10,11,12,13,14,15,16,17,18,19,20,21},
	{2,3,4,5,6,7,8,9,10,11,12,13,14,15,16,17,18,19,20,21},
	{2,3,4,7,8,9,11,12,15,16,17,18,19,20,21},
	{2,3,4,6,7,8,9,11,12,13,14,15,16,17,19,20}];
